Running MiniSat on FULL_RUN_MINISAT\a08e66296d00f480e9ccadd79fa8b904-j3045_4_gmto_b.cnf... 
============================[ Problem Statistics ]=============================
|                                                                             |
|  Number of variables:         14128                                         |
|  Number of clauses:           46571                                         |
|  Parse time:                   0.09 s                                       |
|                                                                             |
============================[ Search Statistics ]==============================
| Conflicts |          ORIGINAL         |          LEARNT          | Progress |
|           |    Vars  Clauses Literals |    Limit  Clauses Lit/Cl |          |
===============================================================================
|       100 |   13031    44881   115061 |    16456      100      6 |  7.765 % |
|       250 |   13031    44881   115061 |    18102      250      6 |  7.765 % |
|       475 |   13031    44881   115061 |    19912      475      7 |  7.765 % |
|       812 |   13031    44881   115061 |    21903      812      6 |  7.765 % |
|      1318 |   13031    44881   115061 |    24093     1318      8 |  7.765 % |
|      2077 |   13031    44881   115061 |    26503     2077      9 |  7.765 % |
|      3216 |   13031    44881   115061 |    29153     3216     15 |  7.765 % |
|      4924 |   13031    44881   115061 |    32068     4924     16 |  7.765 % |
|      7486 |   13031    44881   115061 |    35275     7486     22 |  7.765 % |
|     11330 |   13031    44881   115061 |    38803    11330     24 |  7.765 % |
|     17096 |   13031    44881   115061 |    42683    17096     26 |  7.765 % |
|     25745 |   13031    44881   115061 |    46951    25745     31 |  7.765 % |
|     38719 |   13031    44881   115061 |    51647    38719     37 |  7.765 % |
|     58180 |   13031    44881   115061 |    56811    24899     34 |  7.765 % |
ERROR: MiniSat process not found for FULL_RUN_MINISAT\b087c195e5b7bb191d3a701aa0aa8cf1-Break_unsat_14_23.xml.cnf 
Finished MiniSat on FULL_RUN_MINISAT\b087c195e5b7bb191d3a701aa0aa8cf1-Break_unsat_14_23.xml.cnf